98 45 60 31 153 24 125 75 72 99 79 177 20 65 44 147 167 109 172 168 73 41 128 61 115 14 70 141 186 195 193 159 27 77 51 178 80 48 59 19 162 132 158 33 119 154 105 174 28 82 49 8 87 165 152 18 9 43 35 97 182 127 137 112 190 68 4 129 102 52 38 94 121 150 39 64 136 90 37 53 179 103 74 84 101 36 149 16 139 155 83 3 176 196 23 166 175 58 54 81 184 135 183 140 156 7 118 67 13 42 92 0 170 151 46 163 161 17 76 111 133 116 142 199 47 26 144 198 157 169 22 1 5 86 164 120 113 40 2 114 189 6 117 106 12 96 188 55 30 11 108 21 32 138 194 15 56 29 85 145 126 93 131 148 107 110 134 143 95 71 63 78 181 123 192 124 66 185 191 180 88 25 187 50 122 130 100 10 171 197 160 173 146 57 104 91 62 34 69 89 

